NAME : A-n32-k5.487305.tour
COMMENT : Length = 487305
COMMENT : Found by LKH [Keld Helsgaun] Sun Dec 17 18:23:44 2017
TYPE : TOUR
DIMENSION : 36
TOUR_SECTION
1
21
6
26
11
30
16
23
10
19
9
36
27
8
14
22
32
20
18
33
31
17
13
2
34
28
25
15
35
7
4
3
24
29
5
12
-1
EOF
